9419
9282
9208
9403
9364
9340
9245
9332
9293
9271
9508
9289
9240
9186
9379
9318
9251
9308
9363
9327
9221
9206
9346
9310
9066
9364
9180
9287
9259
9128
9194
9279
9250
9119
9360
9307
9248
9320
9420
9403
9317
9277
9223
9382
9237
9186
9068
9404
9287
9260
9315
9343
9342
9409
9302
9163
9258
9185
9389
9280
9358
9293
9274
9378
9172
9237
9255
9341
9271
9300
9149
9119
9207
9200
9256
9291
9335
9208
9344
9018
9187
9325
9180
9281
9343
9360
9344
9361
9294
9422
9135
9102
9302
9350
9085
9188
9117
9344
9377
9344
